23 23.0
19
3 3 3 17
3 4 17 19
3 5 17 0
3 6 4 0
3 7 3 10
3 8 0 6
3 9 0 14
3 10 7 0
3 11 20 12
3 12 20 0
3 14 17 5
3 20 10 0
4 3 3 20
4 4 3 6
4 6 0 0
4 10 6 10
4 11 13 12
4 12 13 0
6 3 7 20
